29247
101000110110100010011000101111
27 19 2 27 2 19 2 27 27 27 6 28 19 10 28 7 20 9 24 27 28 16 2 24 10 27 24 28 29 0 29 19 26 24 27 6 9 9 24 16 7 9 28 29 9 19 10 24 19 20 27 16 24 24 9 28 7 9 27 12 26 0 7 20 20 12 20 9 28 12 7 12 12 9 10 20 10 0 20 16 10 0 26 7 26 10 19 2 27 7 0 19 7 28 10 10 28 12 0 28 28 2 12 7 29 0 26 24 27 9 28 26 27 12 12 9 28 7 0 9 9 12 28 19 26 16 2 28 26 0 28 24 6 10 20 9 9 9 28 26 12 24 28 12 7 10 24 24 27 12 24 0 10 0 20 12 2 2 10 10 10 10 19 24 2 27 24 29 10 2 10 20 28 19 26 2 27 10 29 10 10 2 2 19 12 9 28 10 0 2 2 27 6 19 7 12 7 2 10 10 